<?xml version = "1.0" standalone="yes"?>
<!-- This file has been generated by DOcplex version 2.23.222  -->
<CPLEXSolution version="1.0">
 <header
   problemName="CVRP"
   objectiveValue="17492.1"
  />
 <variables>
  <variable name="x_0_1" index="0" value="1.00000"/>
  <variable name="x_0_2" index="1" value="1.00000"/>
  <variable name="x_0_5" index="4" value="1.00000"/>
  <variable name="x_0_6" index="5" value="1.00000"/>
  <variable name="x_0_8" index="7" value="1.00000"/>
  <variable name="x_0_10" index="9" value="1.00000"/>
  <variable name="x_0_11" index="10" value="1.00000"/>
  <variable name="x_0_12" index="11" value="1.00000"/>
  <variable name="x_0_13" index="12" value="1.00000"/>
  <variable name="x_0_17" index="16" value="1.00000"/>
  <variable name="x_0_18" index="17" value="1.00000"/>
  <variable name="x_0_23" index="22" value="1.00000"/>
  <variable name="x_0_25" index="24" value="1.00000"/>
  <variable name="x_1_0" index="25" value="1.00000"/>
  <variable name="x_2_16" index="65" value="1.00000"/>
  <variable name="x_3_0" index="75" value="1.00000"/>
  <variable name="x_4_24" index="123" value="1.00000"/>
  <variable name="x_5_7" index="131" value="1.00000"/>
  <variable name="x_6_0" index="150" value="1.00000"/>
  <variable name="x_7_0" index="175" value="1.00000"/>
  <variable name="x_8_9" index="208" value="1.00000"/>
  <variable name="x_9_0" index="225" value="1.00000"/>
  <variable name="x_10_19" index="268" value="1.00000"/>
  <variable name="x_11_14" index="288" value="1.00000"/>
  <variable name="x_12_3" index="303" value="1.00000"/>
  <variable name="x_13_0" index="325" value="1.00000"/>
  <variable name="x_14_15" index="364" value="1.00000"/>
  <variable name="x_15_0" index="375" value="1.00000"/>
  <variable name="x_16_20" index="419" value="1.00000"/>
  <variable name="x_17_22" index="446" value="1.00000"/>
  <variable name="x_18_4" index="454" value="1.00000"/>
  <variable name="x_19_0" index="475" value="1.00000"/>
  <variable name="x_20_0" index="500" value="1.00000"/>
  <variable name="x_21_0" index="525" value="1.00000"/>
  <variable name="x_22_0" index="550" value="1.00000"/>
  <variable name="x_23_21" index="596" value="1.00000"/>
  <variable name="x_24_0" index="600" value="1.00000"/>
  <variable name="x_25_0" index="625" value="1.00000"/>
  <variable name="u_1" index="650" value="67.00000"/>
  <variable name="u_2" index="651" value="17.00000"/>
  <variable name="u_3" index="652" value="67.00000"/>
  <variable name="u_4" index="653" value="47.00000"/>
  <variable name="u_5" index="654" value="33.00000"/>
  <variable name="u_6" index="655" value="59.00000"/>
  <variable name="u_7" index="656" value="67.00000"/>
  <variable name="u_8" index="657" value="36.00000"/>
  <variable name="u_9" index="658" value="45.00000"/>
  <variable name="u_10" index="659" value="24.00000"/>
  <variable name="u_11" index="660" value="12.00000"/>
  <variable name="u_12" index="661" value="20.00000"/>
  <variable name="u_13" index="662" value="36.00000"/>
  <variable name="u_14" index="663" value="57.00000"/>
  <variable name="u_15" index="664" value="67.00000"/>
  <variable name="u_16" index="665" value="52.00000"/>
  <variable name="u_17" index="666" value="56.00000"/>
  <variable name="u_18" index="667" value="36.00000"/>
  <variable name="u_19" index="668" value="67.00000"/>
  <variable name="u_20" index="669" value="53.00000"/>
  <variable name="u_21" index="670" value="67.00000"/>
  <variable name="u_22" index="671" value="67.00000"/>
  <variable name="u_23" index="672" value="34.00000"/>
  <variable name="u_24" index="673" value="67.00000"/>
  <variable name="u_25" index="674" value="52.00000"/>
 </variables>
</CPLEXSolution>
